p cnf 15 20
2 7 4 9 -12 8 0
2 14 -10 -5 1 3 -11 0
7 5 
4 -8 0
-1 
-10 -12 
-3 
-9 0
14 3 -5 0
-4 -15 0
1 12 4 11 0
-10 3 -11 4 0
-2 0
-1 -15 14 0
-1 0
-1 0
-1 -13 -2 0
-2 -4 0
-2 5 13 0
-1 3 0
10 2 13 0
1 -12 0
-4 5 0
11 -1 0
